(set-info :source Astral)
(set-info :status unsat)

(declare-sort Loc 0)
(declare-heap (Loc Loc))

(declare-const x Loc)
(declare-const y Loc)

(assert (dls x y nil nil))
(assert (not (dls x y nil nil)))

(check-sat)
